(set-logic QF_S)
(declare-fun var_0xINPUT_101990 () String)
(assert (and (= (len var_0xINPUT_101990) 0) (= (len var_0xINPUT_101990) 0) (not (= var_0xINPUT_101990 "3s71lxYG6e"))))
(check-sat var_0xINPUT_101990)